(set-info :smt-lib-version 2.6)
(set-info :category "crafted")
(set-logic QF_FFA)
(define-sort FF0 () (_ FiniteField 52435875175126190479447740508185965837690552500527637822603658699938581184513))
(declare-fun return_n2_alt () FF0)
(declare-fun mul_n25_alt () FF0)
(declare-fun mul_n20_alt () FF0)
(declare-fun mul_n48_alt () FF0)
(declare-fun mul_n36_alt () FF0)
(declare-fun mul_n47_alt () FF0)
(declare-fun mul_n34_alt () FF0)
(declare-fun mul_n46_alt () FF0)
(declare-fun mul_n39_alt () FF0)
(declare-fun mul_n45_alt () FF0)
(declare-fun mul_n10_alt () FF0)
(declare-fun mul_n44_alt () FF0)
(declare-fun mul_n18_alt () FF0)
(declare-fun mul_n41_alt () FF0)
(declare-fun mul_n28_alt () FF0)
(declare-fun mul_n43_alt () FF0)
(declare-fun mul_n42_alt () FF0)
(declare-fun mul_n19_alt () FF0)
(declare-fun mul_n14_alt () FF0)
(declare-fun mul_n37_alt () FF0)
(declare-fun mul_n40_alt () FF0)
(declare-fun b_n3_alt () FF0)
(declare-fun a_n4_alt () FF0)
(declare-fun mul_n7_alt () FF0)
(declare-fun mul_n21_alt () FF0)
(declare-fun mul_n8_alt () FF0)
(declare-fun mul_n27_alt () FF0)
(declare-fun mul_n11_alt () FF0)
(declare-fun d_n0_alt () FF0)
(declare-fun mul_n12_alt () FF0)
(declare-fun mul_n26_alt () FF0)
(declare-fun mul_n38_alt () FF0)
(declare-fun mul_n35_alt () FF0)
(declare-fun mul_n33_alt () FF0)
(declare-fun mul_n32_alt () FF0)
(declare-fun mul_n22_alt () FF0)
(declare-fun mul_n23_alt () FF0)
(declare-fun mul_n31_alt () FF0)
(declare-fun mul_n30_alt () FF0)
(declare-fun mul_n29_alt () FF0)
(declare-fun mul_n24_alt () FF0)
(declare-fun mul_n15_alt () FF0)
(declare-fun c_n1_alt () FF0)
(declare-fun mul_n9_alt () FF0)
(declare-fun mul_n17_alt () FF0)
(declare-fun mul_n16_alt () FF0)
(declare-fun mul_n13_alt () FF0)
(declare-fun mul_n6_alt () FF0)
(declare-fun mul_n5_alt () FF0)
(declare-fun return_n2 () FF0)
(declare-fun mul_n25 () FF0)
(declare-fun mul_n20 () FF0)
(declare-fun mul_n48 () FF0)
(declare-fun mul_n36 () FF0)
(declare-fun mul_n47 () FF0)
(declare-fun mul_n34 () FF0)
(declare-fun mul_n46 () FF0)
(declare-fun mul_n39 () FF0)
(declare-fun mul_n45 () FF0)
(declare-fun mul_n10 () FF0)
(declare-fun mul_n44 () FF0)
(declare-fun mul_n18 () FF0)
(declare-fun mul_n41 () FF0)
(declare-fun mul_n28 () FF0)
(declare-fun mul_n43 () FF0)
(declare-fun mul_n42 () FF0)
(declare-fun mul_n19 () FF0)
(declare-fun mul_n14 () FF0)
(declare-fun mul_n37 () FF0)
(declare-fun mul_n40 () FF0)
(declare-fun b_n3 () FF0)
(declare-fun a_n4 () FF0)
(declare-fun mul_n7 () FF0)
(declare-fun mul_n21 () FF0)
(declare-fun mul_n8 () FF0)
(declare-fun mul_n27 () FF0)
(declare-fun mul_n11 () FF0)
(declare-fun d_n0 () FF0)
(declare-fun mul_n12 () FF0)
(declare-fun mul_n26 () FF0)
(declare-fun mul_n38 () FF0)
(declare-fun mul_n35 () FF0)
(declare-fun mul_n33 () FF0)
(declare-fun mul_n32 () FF0)
(declare-fun mul_n22 () FF0)
(declare-fun mul_n23 () FF0)
(declare-fun mul_n31 () FF0)
(declare-fun mul_n30 () FF0)
(declare-fun mul_n29 () FF0)
(declare-fun mul_n24 () FF0)
(declare-fun mul_n15 () FF0)
(declare-fun c_n1 () FF0)
(declare-fun mul_n9 () FF0)
(declare-fun mul_n17 () FF0)
(declare-fun mul_n16 () FF0)
(declare-fun mul_n13 () FF0)
(declare-fun mul_n6 () FF0)
(declare-fun mul_n5 () FF0)
(assert 
  (let ((let0 (as ff1 FF0)))
  (let ((let1 (as ff52435875175126190479447740508185965837690552500527637822603658699938581184512 FF0)))
  (let ((let2 return_n2_alt))
  (let ((let3 (ff.mul let2 let1)))
  (let ((let4 (ff.add let3 let0)))
  (let ((let5 mul_n25_alt))
  (let ((let6 (ff.mul let5 let1)))
  (let ((let7 mul_n20_alt))
  (let ((let8 (ff.add let7 let6)))
  (let ((let9 mul_n48_alt))
  (let ((let10 (ff.mul let9 let8)))
  (let ((let11 (= let10 let4)))
  (let ((let12 mul_n36_alt))
  (let ((let13 (ff.mul let12 let1)))
  (let ((let14 (ff.add let13 let0)))
  (let ((let15 mul_n47_alt))
  (let ((let16 (ff.mul let15 let14)))
  (let ((let17 (= let16 let9)))
  (let ((let18 mul_n34_alt))
  (let ((let19 (ff.mul let18 let1)))
  (let ((let20 (ff.add let19 let0)))
  (let ((let21 mul_n46_alt))
  (let ((let22 (ff.mul let21 let20)))
  (let ((let23 (= let22 let15)))
  (let ((let24 mul_n39_alt))
  (let ((let25 mul_n45_alt))
  (let ((let26 (ff.mul let25 let24)))
  (let ((let27 (= let26 let21)))
  (let ((let28 mul_n10_alt))
  (let ((let29 mul_n44_alt))
  (let ((let30 (ff.mul let29 let28)))
  (let ((let31 (= let30 let25)))
  (let ((let32 mul_n18_alt))
  (let ((let33 mul_n41_alt))
  (let ((let34 (ff.mul let33 let1)))
  (let ((let35 mul_n28_alt))
  (let ((let36 (ff.mul let35 let1)))
  (let ((let37 (ff.add let36 let34 let32)))
  (let ((let38 mul_n43_alt))
  (let ((let39 (ff.mul let38 let37)))
  (let ((let40 (= let39 let29)))
  (let ((let41 mul_n42_alt))
  (let ((let42 (as ff2 FF0)))
  (let ((let43 (ff.mul let28 let1)))
  (let ((let44 (ff.mul let32 let1)))
  (let ((let45 mul_n19_alt))
  (let ((let46 (ff.mul let45 let1)))
  (let ((let47 (ff.add let46 let44 let43 let42)))
  (let ((let48 (ff.mul let47 let41)))
  (let ((let49 (= let48 let38)))
  (let ((let50 mul_n14_alt))
  (let ((let51 mul_n37_alt))
  (let ((let52 (ff.mul let51 let1)))
  (let ((let53 (ff.add let52 let0)))
  (let ((let54 (ff.mul let53 let50)))
  (let ((let55 (= let54 let41)))
  (let ((let56 mul_n40_alt))
  (let ((let57 (ff.mul let56 let1)))
  (let ((let58 (ff.add let57 let36 let32)))
  (let ((let59 b_n3_alt))
  (let ((let60 a_n4_alt))
  (let ((let61 (ff.mul let60 let1)))
  (let ((let62 mul_n7_alt))
  (let ((let63 mul_n21_alt))
  (let ((let64 mul_n8_alt))
  (let ((let65 (ff.mul let64 let1)))
  (let ((let66 (ff.add let65 let63 let62 let61 let59)))
  (let ((let67 (ff.mul let66 let58)))
  (let ((let68 (= let67 let33)))
  (let ((let69 mul_n27_alt))
  (let ((let70 (ff.mul let69 let1)))
  (let ((let71 mul_n11_alt))
  (let ((let72 d_n0_alt))
  (let ((let73 (ff.add let72 let71 let43 let70 let0)))
  (let ((let74 mul_n12_alt))
  (let ((let75 (ff.mul let74 let1)))
  (let ((let76 (ff.add let75 let0)))
  (let ((let77 (ff.mul let76 let73)))
  (let ((let78 (= let77 let56)))
  (let ((let79 mul_n26_alt))
  (let ((let80 mul_n38_alt))
  (let ((let81 (ff.mul let80 let79)))
  (let ((let82 (= let81 let24)))
  (let ((let83 (ff.add let43 let0)))
  (let ((let84 (ff.mul let83 let51)))
  (let ((let85 (= let84 let80)))
  (let ((let86 (ff.mul let66 let7)))
  (let ((let87 (= let86 let51)))
  (let ((let88 mul_n35_alt))
  (let ((let89 (ff.mul let88 let20)))
  (let ((let90 (= let89 let12)))
  (let ((let91 (ff.mul let20 let76)))
  (let ((let92 (= let91 let88)))
  (let ((let93 (ff.mul let59 let1)))
  (let ((let94 (ff.add let93 let0)))
  (let ((let95 mul_n33_alt))
  (let ((let96 (ff.mul let95 let94)))
  (let ((let97 (= let96 let18)))
  (let ((let98 mul_n32_alt))
  (let ((let99 (ff.mul let98 let79)))
  (let ((let100 (= let99 let95)))
  (let ((let101 mul_n22_alt))
  (let ((let102 (ff.mul let101 let1)))
  (let ((let103 (ff.mul let62 let1)))
  (let ((let104 mul_n23_alt))
  (let ((let105 (ff.mul let104 let1)))
  (let ((let106 (ff.add let64 let105 let103 let102 let93 let42)))
  (let ((let107 mul_n31_alt))
  (let ((let108 (ff.mul let107 let106)))
  (let ((let109 (= let108 let98)))
  (let ((let110 mul_n30_alt))
  (let ((let111 (ff.mul let110 let106)))
  (let ((let112 (= let111 let107)))
  (let ((let113 (ff.add let46 let43 let44 let42)))
  (let ((let114 mul_n29_alt))
  (let ((let115 (ff.mul let114 let113)))
  (let ((let116 (= let115 let110)))
  (let ((let117 mul_n24_alt))
  (let ((let118 (ff.add let36 let32)))
  (let ((let119 (ff.mul let118 let117)))
  (let ((let120 (= let119 let114)))
  (let ((let121 (ff.mul let71 let1)))
  (let ((let122 (ff.mul let72 let1)))
  (let ((let123 (ff.add let69 let122 let28 let32 let121 let1)))
  (let ((let124 (ff.mul let79 let1)))
  (let ((let125 (ff.add let124 let0)))
  (let ((let126 (ff.mul let125 let123)))
  (let ((let127 (= let126 let35)))
  (let ((let128 (ff.mul let71 let42)))
  (let ((let129 (as ff52435875175126190479447740508185965837690552500527637822603658699938581184511 FF0)))
  (let ((let130 (ff.mul let28 let129)))
  (let ((let131 (ff.add let130 let128 let42)))
  (let ((let132 (ff.mul let131 let72)))
  (let ((let133 (= let132 let69)))
  (let ((let134 mul_n15_alt))
  (let ((let135 (ff.add let59 let134)))
  (let ((let136 (ff.mul let135 let32)))
  (let ((let137 (= let136 let79)))
  (let ((let138 (ff.add let65 let104 let62 let7 let101 let59 let129)))
  (let ((let139 (ff.mul let117 let1)))
  (let ((let140 (ff.add let139 let0)))
  (let ((let141 (ff.mul let140 let138)))
  (let ((let142 (= let141 let5)))
  (let ((let143 (ff.mul let47 let7)))
  (let ((let144 (= let143 let117)))
  (let ((let145 (ff.add let64 let103 let93 let0)))
  (let ((let146 (ff.mul let101 let129)))
  (let ((let147 (ff.add let146 let42)))
  (let ((let148 (ff.mul let147 let145)))
  (let ((let149 (= let148 let104)))
  (let ((let150 c_n1_alt))
  (let ((let151 (ff.mul let150 let1)))
  (let ((let152 mul_n9_alt))
  (let ((let153 (ff.mul let152 let1)))
  (let ((let154 (ff.add let153 let151 let0)))
  (let ((let155 (ff.mul let66 let154)))
  (let ((let156 (= let155 let101)))
  (let ((let157 (ff.mul let59 let129)))
  (let ((let158 (ff.mul let62 let129)))
  (let ((let159 (ff.mul let64 let42)))
  (let ((let160 (ff.add let159 let158 let157 let42)))
  (let ((let161 (ff.mul let160 let60)))
  (let ((let162 (= let161 let63)))
  (let ((let163 (ff.mul let47 let74)))
  (let ((let164 (= let163 let7)))
  (let ((let165 (ff.mul let32 let129)))
  (let ((let166 (ff.add let165 let42)))
  (let ((let167 (ff.mul let166 let83)))
  (let ((let168 (= let167 let45)))
  (let ((let169 (ff.add let151 let0)))
  (let ((let170 mul_n17_alt))
  (let ((let171 (ff.mul let170 let169)))
  (let ((let172 (= let171 let32)))
  (let ((let173 mul_n16_alt))
  (let ((let174 (ff.mul let173 let50)))
  (let ((let175 (= let174 let170)))
  (let ((let176 (ff.mul let134 let1)))
  (let ((let177 (ff.add let176 let93 let0)))
  (let ((let178 (ff.mul let177 let177)))
  (let ((let179 (= let178 let173)))
  (let ((let180 (ff.add let93 let62)))
  (let ((let181 (ff.mul let50 let1)))
  (let ((let182 (ff.add let181 let0)))
  (let ((let183 (ff.mul let182 let180)))
  (let ((let184 (= let183 let134)))
  (let ((let185 (ff.add let61 let0)))
  (let ((let186 mul_n13_alt))
  (let ((let187 (ff.mul let186 let185)))
  (let ((let188 (= let187 let50)))
  (let ((let189 (ff.add let122 let0)))
  (let ((let190 (ff.add let28 let121)))
  (let ((let191 (ff.mul let190 let189)))
  (let ((let192 (= let191 let186)))
  (let ((let193 (ff.add let43 let71 let0)))
  (let ((let194 (ff.mul let193 let189)))
  (let ((let195 (= let194 let74)))
  (let ((let196 (ff.add let152 let150 let28 let1)))
  (let ((let197 (ff.mul let83 let196)))
  (let ((let198 (= let197 let71)))
  (let ((let199 (ff.add let65 let59 let62)))
  (let ((let200 (ff.mul let154 let199)))
  (let ((let201 (= let200 let28)))
  (let ((let202 (ff.add let151 let62)))
  (let ((let203 (ff.mul let72 let202)))
  (let ((let204 (= let203 let152)))
  (let ((let205 (ff.mul let59 let42)))
  (let ((let206 (ff.mul let205 let62)))
  (let ((let207 (= let206 let64)))
  (let ((let208 mul_n6_alt))
  (let ((let209 (ff.mul let208 let60)))
  (let ((let210 (= let209 let62)))
  (let ((let211 mul_n5_alt))
  (let ((let212 (ff.mul let211 let150)))
  (let ((let213 (= let212 let208)))
  (let ((let214 (ff.mul let59 let60)))
  (let ((let215 (= let214 let211)))
  (let ((let216 (and let215 let213 let210 let207 let204 let201 let198 let195 let192 let188 let184 let179 let175 let172 let168 let164 let162 let156 let149 let144 let142 let137 let133 let127 let120 let116 let112 let109 let100 let97 let92 let90 let87 let85 let82 let78 let68 let55 let49 let40 let31 let27 let23 let17 let11)))
  (let ((let217 return_n2))
  (let ((let218 (ff.mul let217 let1)))
  (let ((let219 (ff.add let218 let0)))
  (let ((let220 mul_n25))
  (let ((let221 (ff.mul let220 let1)))
  (let ((let222 mul_n20))
  (let ((let223 (ff.add let222 let221)))
  (let ((let224 mul_n48))
  (let ((let225 (ff.mul let224 let223)))
  (let ((let226 (= let225 let219)))
  (let ((let227 mul_n36))
  (let ((let228 (ff.mul let227 let1)))
  (let ((let229 (ff.add let228 let0)))
  (let ((let230 mul_n47))
  (let ((let231 (ff.mul let230 let229)))
  (let ((let232 (= let231 let224)))
  (let ((let233 mul_n34))
  (let ((let234 (ff.mul let233 let1)))
  (let ((let235 (ff.add let234 let0)))
  (let ((let236 mul_n46))
  (let ((let237 (ff.mul let236 let235)))
  (let ((let238 (= let237 let230)))
  (let ((let239 mul_n39))
  (let ((let240 mul_n45))
  (let ((let241 (ff.mul let240 let239)))
  (let ((let242 (= let241 let236)))
  (let ((let243 mul_n10))
  (let ((let244 mul_n44))
  (let ((let245 (ff.mul let244 let243)))
  (let ((let246 (= let245 let240)))
  (let ((let247 mul_n18))
  (let ((let248 mul_n41))
  (let ((let249 (ff.mul let248 let1)))
  (let ((let250 mul_n28))
  (let ((let251 (ff.mul let250 let1)))
  (let ((let252 (ff.add let251 let249 let247)))
  (let ((let253 mul_n43))
  (let ((let254 (ff.mul let253 let252)))
  (let ((let255 (= let254 let244)))
  (let ((let256 mul_n42))
  (let ((let257 (ff.mul let243 let1)))
  (let ((let258 (ff.mul let247 let1)))
  (let ((let259 mul_n19))
  (let ((let260 (ff.mul let259 let1)))
  (let ((let261 (ff.add let260 let258 let257 let42)))
  (let ((let262 (ff.mul let261 let256)))
  (let ((let263 (= let262 let253)))
  (let ((let264 mul_n14))
  (let ((let265 mul_n37))
  (let ((let266 (ff.mul let265 let1)))
  (let ((let267 (ff.add let266 let0)))
  (let ((let268 (ff.mul let267 let264)))
  (let ((let269 (= let268 let256)))
  (let ((let270 mul_n40))
  (let ((let271 (ff.mul let270 let1)))
  (let ((let272 (ff.add let271 let251 let247)))
  (let ((let273 b_n3))
  (let ((let274 a_n4))
  (let ((let275 (ff.mul let274 let1)))
  (let ((let276 mul_n7))
  (let ((let277 mul_n21))
  (let ((let278 mul_n8))
  (let ((let279 (ff.mul let278 let1)))
  (let ((let280 (ff.add let279 let277 let276 let275 let273)))
  (let ((let281 (ff.mul let280 let272)))
  (let ((let282 (= let281 let248)))
  (let ((let283 mul_n27))
  (let ((let284 (ff.mul let283 let1)))
  (let ((let285 mul_n11))
  (let ((let286 d_n0))
  (let ((let287 (ff.add let286 let285 let257 let284 let0)))
  (let ((let288 mul_n12))
  (let ((let289 (ff.mul let288 let1)))
  (let ((let290 (ff.add let289 let0)))
  (let ((let291 (ff.mul let290 let287)))
  (let ((let292 (= let291 let270)))
  (let ((let293 mul_n26))
  (let ((let294 mul_n38))
  (let ((let295 (ff.mul let294 let293)))
  (let ((let296 (= let295 let239)))
  (let ((let297 (ff.add let257 let0)))
  (let ((let298 (ff.mul let297 let265)))
  (let ((let299 (= let298 let294)))
  (let ((let300 (ff.mul let280 let222)))
  (let ((let301 (= let300 let265)))
  (let ((let302 mul_n35))
  (let ((let303 (ff.mul let302 let235)))
  (let ((let304 (= let303 let227)))
  (let ((let305 (ff.mul let235 let290)))
  (let ((let306 (= let305 let302)))
  (let ((let307 (ff.mul let273 let1)))
  (let ((let308 (ff.add let307 let0)))
  (let ((let309 mul_n33))
  (let ((let310 (ff.mul let309 let308)))
  (let ((let311 (= let310 let233)))
  (let ((let312 mul_n32))
  (let ((let313 (ff.mul let312 let293)))
  (let ((let314 (= let313 let309)))
  (let ((let315 mul_n22))
  (let ((let316 (ff.mul let315 let1)))
  (let ((let317 (ff.mul let276 let1)))
  (let ((let318 mul_n23))
  (let ((let319 (ff.mul let318 let1)))
  (let ((let320 (ff.add let278 let319 let317 let316 let307 let42)))
  (let ((let321 mul_n31))
  (let ((let322 (ff.mul let321 let320)))
  (let ((let323 (= let322 let312)))
  (let ((let324 mul_n30))
  (let ((let325 (ff.mul let324 let320)))
  (let ((let326 (= let325 let321)))
  (let ((let327 (ff.add let260 let257 let258 let42)))
  (let ((let328 mul_n29))
  (let ((let329 (ff.mul let328 let327)))
  (let ((let330 (= let329 let324)))
  (let ((let331 mul_n24))
  (let ((let332 (ff.add let251 let247)))
  (let ((let333 (ff.mul let332 let331)))
  (let ((let334 (= let333 let328)))
  (let ((let335 (ff.mul let285 let1)))
  (let ((let336 (ff.mul let286 let1)))
  (let ((let337 (ff.add let283 let336 let243 let247 let335 let1)))
  (let ((let338 (ff.mul let293 let1)))
  (let ((let339 (ff.add let338 let0)))
  (let ((let340 (ff.mul let339 let337)))
  (let ((let341 (= let340 let250)))
  (let ((let342 (ff.mul let285 let42)))
  (let ((let343 (ff.mul let243 let129)))
  (let ((let344 (ff.add let343 let342 let42)))
  (let ((let345 (ff.mul let344 let286)))
  (let ((let346 (= let345 let283)))
  (let ((let347 mul_n15))
  (let ((let348 (ff.add let273 let347)))
  (let ((let349 (ff.mul let348 let247)))
  (let ((let350 (= let349 let293)))
  (let ((let351 (ff.add let279 let318 let276 let222 let315 let273 let129)))
  (let ((let352 (ff.mul let331 let1)))
  (let ((let353 (ff.add let352 let0)))
  (let ((let354 (ff.mul let353 let351)))
  (let ((let355 (= let354 let220)))
  (let ((let356 (ff.mul let261 let222)))
  (let ((let357 (= let356 let331)))
  (let ((let358 (ff.add let278 let317 let307 let0)))
  (let ((let359 (ff.mul let315 let129)))
  (let ((let360 (ff.add let359 let42)))
  (let ((let361 (ff.mul let360 let358)))
  (let ((let362 (= let361 let318)))
  (let ((let363 c_n1))
  (let ((let364 (ff.mul let363 let1)))
  (let ((let365 mul_n9))
  (let ((let366 (ff.mul let365 let1)))
  (let ((let367 (ff.add let366 let364 let0)))
  (let ((let368 (ff.mul let280 let367)))
  (let ((let369 (= let368 let315)))
  (let ((let370 (ff.mul let273 let129)))
  (let ((let371 (ff.mul let276 let129)))
  (let ((let372 (ff.mul let278 let42)))
  (let ((let373 (ff.add let372 let371 let370 let42)))
  (let ((let374 (ff.mul let373 let274)))
  (let ((let375 (= let374 let277)))
  (let ((let376 (ff.mul let261 let288)))
  (let ((let377 (= let376 let222)))
  (let ((let378 (ff.mul let247 let129)))
  (let ((let379 (ff.add let378 let42)))
  (let ((let380 (ff.mul let379 let297)))
  (let ((let381 (= let380 let259)))
  (let ((let382 (ff.add let364 let0)))
  (let ((let383 mul_n17))
  (let ((let384 (ff.mul let383 let382)))
  (let ((let385 (= let384 let247)))
  (let ((let386 mul_n16))
  (let ((let387 (ff.mul let386 let264)))
  (let ((let388 (= let387 let383)))
  (let ((let389 (ff.mul let347 let1)))
  (let ((let390 (ff.add let389 let307 let0)))
  (let ((let391 (ff.mul let390 let390)))
  (let ((let392 (= let391 let386)))
  (let ((let393 (ff.add let307 let276)))
  (let ((let394 (ff.mul let264 let1)))
  (let ((let395 (ff.add let394 let0)))
  (let ((let396 (ff.mul let395 let393)))
  (let ((let397 (= let396 let347)))
  (let ((let398 (ff.add let275 let0)))
  (let ((let399 mul_n13))
  (let ((let400 (ff.mul let399 let398)))
  (let ((let401 (= let400 let264)))
  (let ((let402 (ff.add let336 let0)))
  (let ((let403 (ff.add let243 let335)))
  (let ((let404 (ff.mul let403 let402)))
  (let ((let405 (= let404 let399)))
  (let ((let406 (ff.add let257 let285 let0)))
  (let ((let407 (ff.mul let406 let402)))
  (let ((let408 (= let407 let288)))
  (let ((let409 (ff.add let365 let363 let243 let1)))
  (let ((let410 (ff.mul let297 let409)))
  (let ((let411 (= let410 let285)))
  (let ((let412 (ff.add let279 let273 let276)))
  (let ((let413 (ff.mul let367 let412)))
  (let ((let414 (= let413 let243)))
  (let ((let415 (ff.add let364 let276)))
  (let ((let416 (ff.mul let286 let415)))
  (let ((let417 (= let416 let365)))
  (let ((let418 (ff.mul let273 let42)))
  (let ((let419 (ff.mul let418 let276)))
  (let ((let420 (= let419 let278)))
  (let ((let421 mul_n6))
  (let ((let422 (ff.mul let421 let274)))
  (let ((let423 (= let422 let276)))
  (let ((let424 mul_n5))
  (let ((let425 (ff.mul let424 let363)))
  (let ((let426 (= let425 let421)))
  (let ((let427 (ff.mul let273 let274)))
  (let ((let428 (= let427 let424)))
  (let ((let429 (and let428 let426 let423 let420 let417 let414 let411 let408 let405 let401 let397 let392 let388 let385 let381 let377 let375 let369 let362 let357 let355 let350 let346 let341 let334 let330 let326 let323 let314 let311 let306 let304 let301 let299 let296 let292 let282 let269 let263 let255 let246 let242 let238 let232 let226)))
  (let ((let430 (= let217 let2)))
  (let ((let431 (not let430)))
  (let ((let432 (= let363 let150)))
  (let ((let433 (= let273 let59)))
  (let ((let434 (= let274 let60)))
  (let ((let435 (= let286 let72)))
  (let ((let436 (and let435 let434 let433 let432)))
  (let ((let437 (and let436 let431 let429 let216)))
  let437
))))))))))))))))))))))))))))))))))))))))))))))))))))))))))))))))))))))))))))))))))))))))))))))))))))))))))))))))))))))))))))))))))))))))))))))))))))))))))))))))))))))))))))))))))))))))))))))))))))))))))))))))))))))))))))))))))))))))))))))))))))))))))))))))))))))))))))))))))))))))))))))))))))))))))))))))))))))))))))))))))))))))))))))))))))))))))))))))))))))))))))))))))))))))))))))))))))))))))))))))))))))))))))))))))))))))))))))))))))))
)
(check-sat)
